p tw 171 8101 82 
1 83 
1 84 
1 85 
1 86 
1 87 
1 88 
1 89 
1 90 
1 91 
2 82 
2 92 
2 93 
2 94 
2 95 
2 96 
2 97 
2 98 
2 99 
2 100 
3 82 
3 101 
3 102 
3 103 
3 104 
3 105 
3 106 
3 107 
3 108 
3 109 
4 82 
4 110 
4 111 
4 112 
4 113 
4 114 
4 115 
4 116 
4 117 
4 118 
5 82 
5 119 
5 120 
5 121 
5 122 
5 123 
5 124 
5 125 
5 126 
5 127 
6 82 
6 128 
6 129 
6 130 
6 131 
6 132 
6 133 
6 134 
6 135 
6 136 
7 82 
7 137 
7 138 
7 139 
7 140 
7 141 
7 142 
7 143 
7 144 
7 145 
8 82 
8 146 
8 147 
8 148 
8 149 
8 150 
8 151 
8 152 
8 153 
8 154 
9 82 
9 155 
9 156 
9 157 
9 158 
9 159 
9 160 
9 161 
9 162 
9 163 
10 83 
10 97 
10 109 
10 112 
10 125 
10 135 
10 138 
10 149 
10 159 
10 164 
11 86 
11 93 
11 108 
11 118 
11 119 
11 130 
11 141 
11 152 
11 160 
11 164 
12 89 
12 96 
12 103 
12 117 
12 122 
12 136 
12 142 
12 146 
12 156 
12 164 
13 87 
13 94 
13 107 
13 113 
13 120 
13 128 
13 145 
13 151 
13 162 
13 164 
14 88 
14 100 
14 101 
14 116 
14 123 
14 131 
14 144 
14 147 
14 157 
14 164 
15 85 
15 98 
15 105 
15 111 
15 126 
15 133 
15 137 
15 154 
15 158 
15 164 
16 90 
16 95 
16 102 
16 115 
16 127 
16 132 
16 143 
16 148 
16 155 
16 164 
17 91 
17 92 
17 106 
17 114 
17 121 
17 129 
17 140 
17 153 
17 161 
17 164 
18 84 
18 99 
18 104 
18 110 
18 124 
18 134 
18 139 
18 150 
18 163 
18 164 
19 83 
19 96 
19 108 
19 115 
19 121 
19 134 
19 145 
19 147 
19 158 
19 165 
20 89 
20 93 
20 109 
20 114 
20 126 
20 131 
20 139 
20 151 
20 155 
20 165 
21 86 
21 97 
21 103 
21 111 
21 127 
21 128 
21 144 
21 150 
21 161 
21 165 
22 90 
22 92 
22 105 
22 113 
22 124 
22 136 
22 138 
22 152 
22 157 
22 165 
23 91 
23 98 
23 102 
23 110 
23 123 
23 130 
23 142 
23 149 
23 162 
23 165 
24 84 
24 100 
24 107 
24 117 
24 119 
24 133 
24 140 
24 148 
24 159 
24 165 
25 87 
25 99 
25 101 
25 112 
25 122 
25 129 
25 143 
25 154 
25 160 
25 165 
26 88 
26 94 
26 104 
26 118 
26 125 
26 132 
26 137 
26 153 
26 156 
26 165 
27 85 
27 95 
27 106 
27 116 
27 120 
27 135 
27 141 
27 146 
27 163 
27 165 
28 83 
28 92 
28 101 
28 110 
28 119 
28 128 
28 137 
28 146 
28 155 
28 166 
29 84 
29 93 
29 102 
29 111 
29 120 
29 129 
29 138 
29 147 
29 156 
29 166 
30 85 
30 94 
30 103 
30 112 
30 121 
30 130 
30 139 
30 148 
30 157 
30 166 
31 86 
31 95 
31 104 
31 113 
31 122 
31 131 
31 140 
31 149 
31 158 
31 166 
32 87 
32 96 
32 105 
32 114 
32 123 
32 132 
32 141 
32 150 
32 159 
32 166 
33 88 
33 97 
33 106 
33 115 
33 124 
33 133 
33 142 
33 151 
33 160 
33 166 
34 89 
34 98 
34 107 
34 116 
34 125 
34 134 
34 143 
34 152 
34 161 
34 166 
35 90 
35 99 
35 108 
35 117 
35 126 
35 135 
35 144 
35 153 
35 162 
35 166 
36 91 
36 100 
36 109 
36 118 
36 127 
36 136 
36 145 
36 154 
36 163 
36 166 
37 83 
37 99 
37 105 
37 118 
37 120 
37 131 
37 142 
37 148 
37 161 
37 167 
38 91 
38 93 
38 107 
38 115 
38 122 
38 135 
38 137 
38 150 
38 157 
38 167 
39 88 
39 95 
39 103 
39 110 
39 126 
39 129 
39 145 
39 152 
39 159 
39 167 
40 84 
40 98 
40 109 
40 113 
40 121 
40 132 
40 144 
40 146 
40 160 
40 167 
41 86 
41 94 
41 106 
41 117 
41 123 
41 134 
41 138 
41 154 
41 155 
41 167 
42 87 
42 92 
42 108 
42 116 
42 127 
42 133 
42 139 
42 149 
42 156 
42 167 
43 85 
43 97 
43 104 
43 114 
43 119 
43 136 
43 143 
43 147 
43 162 
43 167 
44 89 
44 100 
44 102 
44 112 
44 124 
44 128 
44 141 
44 153 
44 158 
44 167 
45 90 
45 96 
45 101 
45 111 
45 125 
45 130 
45 140 
45 151 
45 163 
45 167 
46 83 
46 100 
46 106 
46 111 
46 122 
46 132 
46 139 
46 152 
46 162 
46 168 
47 90 
47 93 
47 104 
47 116 
47 121 
47 128 
47 142 
47 154 
47 159 
47 168 
48 87 
48 98 
48 103 
48 118 
48 124 
48 135 
48 140 
48 147 
48 155 
48 168 
49 91 
49 97 
49 101 
49 113 
49 126 
49 134 
49 141 
49 148 
49 156 
49 168 
50 84 
50 95 
50 108 
50 112 
50 123 
50 136 
50 137 
50 151 
50 161 
50 168 
51 86 
51 99 
51 102 
51 114 
51 125 
51 133 
51 145 
51 146 
51 157 
51 168 
52 88 
52 92 
52 109 
52 117 
52 120 
52 130 
52 143 
52 150 
52 158 
52 168 
53 85 
53 96 
53 107 
53 110 
53 127 
53 131 
53 138 
53 153 
53 160 
53 168 
54 89 
54 94 
54 105 
54 115 
54 119 
54 129 
54 144 
54 149 
54 163 
54 168 
55 83 
55 94 
55 102 
55 116 
55 126 
55 136 
55 140 
55 150 
55 160 
55 169 
56 85 
56 93 
56 101 
56 117 
56 124 
56 132 
56 145 
56 149 
56 161 
56 169 
57 84 
57 92 
57 103 
57 115 
57 125 
57 131 
57 141 
57 154 
57 162 
57 169 
58 89 
58 99 
58 106 
58 113 
58 127 
58 130 
58 137 
58 147 
58 159 
58 169 
59 90 
59 97 
59 107 
59 118 
59 123 
59 129 
59 139 
59 146 
59 158 
59 169 
60 91 
60 96 
60 104 
60 112 
60 120 
60 133 
60 144 
60 152 
60 155 
60 169 
61 86 
61 100 
61 105 
61 110 
61 121 
61 135 
61 143 
61 151 
61 156 
61 169 
62 87 
62 95 
62 109 
62 111 
62 119 
62 134 
62 142 
62 153 
62 157 
62 169 
63 88 
63 98 
63 108 
63 114 
63 122 
63 128 
63 138 
63 148 
63 163 
63 169 
64 83 
64 95 
64 107 
64 114 
64 124 
64 130 
64 144 
64 154 
64 156 
64 170 
65 88 
65 93 
65 105 
65 112 
65 127 
65 134 
65 140 
65 146 
65 162 
65 170 
66 91 
66 99 
66 103 
66 116 
66 119 
66 132 
66 138 
66 151 
66 158 
66 170 
67 85 
67 100 
67 108 
67 113 
67 125 
67 129 
67 142 
67 150 
67 155 
67 170 
68 89 
68 92 
68 104 
68 111 
68 123 
68 135 
68 145 
68 148 
68 160 
68 170 
69 90 
69 94 
69 109 
69 110 
69 122 
69 133 
69 141 
69 147 
69 161 
69 170 
70 84 
70 96 
70 106 
70 118 
70 126 
70 128 
70 143 
70 149 
70 157 
70 170 
71 86 
71 98 
71 101 
71 115 
71 120 
71 136 
71 139 
71 153 
71 159 
71 170 
72 87 
72 97 
72 102 
72 117 
72 121 
72 131 
72 137 
72 152 
72 163 
72 170 
73 83 
73 98 
73 104 
73 117 
73 127 
73 129 
73 141 
73 151 
73 157 
73 171 
74 87 
74 93 
74 106 
74 110 
74 125 
74 136 
74 144 
74 148 
74 158 
74 171 
75 90 
75 100 
75 103 
75 114 
75 120 
75 134 
75 137 
75 149 
75 160 
75 171 
76 88 
76 96 
76 102 
76 113 
76 119 
76 135 
76 139 
76 154 
76 161 
76 171 
77 85 
77 99 
77 109 
77 115 
77 123 
77 128 
77 140 
77 152 
77 156 
77 171 
78 89 
78 95 
78 101 
78 118 
78 121 
78 133 
78 138 
78 150 
78 162 
78 171 
79 91 
79 94 
79 108 
79 111 
79 124 
79 131 
79 143 
79 146 
79 159 
79 171 
80 84 
80 97 
80 105 
80 116 
80 122 
80 130 
80 145 
80 153 
80 155 
80 171 
81 86 
81 92 
81 107 
81 112 
81 126 
81 132 
81 142 
81 147 
81 163 
81 171 
